(set-logic QF_LIA)
(declare-fun x0 () Int)
(declare-fun x1 () Int)
(declare-fun x2 () Int)
(declare-fun x3 () Int)
(declare-fun x4 () Int)
(declare-fun x5 () Int)
(declare-fun x6 () Int)
(declare-fun x7 () Int)
(declare-fun x8 () Int)
(declare-fun x9 () Int)
(declare-fun A0 () Bool)
(declare-fun A1 () Bool)
(declare-fun A2 () Bool)
(declare-fun A3 () Bool)
(declare-fun A4 () Bool)
(declare-fun A5 () Bool)
(declare-fun A6 () Bool)
(declare-fun A7 () Bool)
(declare-fun A8 () Bool)
(declare-fun A9 () Bool)
(assert (let ((.def_0 (not A2))) (let ((.def_1 (* (- 1) x8))) (let ((.def_2 (* (- 1) x5))) (let ((.def_3 (+ .def_2 .def_1))) (let ((.def_4 (< .def_3 (- 1)))) (let ((.def_5 (not .def_4))) (let ((.def_6 (and .def_5 .def_0))) (let ((.def_7 (not .def_6))) (let ((.def_8 (* (- 1) x0))) (let ((.def_9 (* 1 x4))) (let ((.def_10 (+ .def_9 .def_8))) (let ((.def_11 (< .def_10 1))) (let ((.def_12 (not .def_11))) (let ((.def_13 (* (- 1) x7))) (let ((.def_14 (< .def_13 1))) (let ((.def_15 (or .def_14 .def_12))) (let ((.def_16 (not .def_15))) (let ((.def_17 (or .def_16 .def_7))) (let ((.def_18 (not .def_17))) (let ((.def_19 (not A6))) (let ((.def_20 (or .def_19 A5))) (let ((.def_21 (not .def_20))) (let ((.def_22 (* 1 x3))) (let ((.def_23 (+ .def_22 .def_1))) (let ((.def_24 (< .def_23 (- 1)))) (let ((.def_25 (not A7))) (let ((.def_26 (or .def_25 .def_24))) (let ((.def_27 (or .def_26 .def_21))) (let ((.def_28 (or .def_27 .def_18))) (let ((.def_29 (not .def_28))) (let ((.def_30 (not A3))) (let ((.def_31 (and .def_30 .def_19))) (let ((.def_32 (< .def_22 (- 1)))) (let ((.def_33 (and .def_30 .def_32))) (let ((.def_34 (or .def_33 .def_31))) (let ((.def_35 (* (- 1) x6))) (let ((.def_36 (+ .def_9 .def_35))) (let ((.def_37 (< .def_36 1))) (let ((.def_38 (and .def_37 A5))) (let ((.def_39 (* (- 1) x9))) (let ((.def_40 (< .def_39 (- 1)))) (let ((.def_41 (* 1 x7))) (let ((.def_42 (< .def_41 1))) (let ((.def_43 (and .def_42 .def_40))) (let ((.def_44 (or .def_43 .def_38))) (let ((.def_45 (not .def_44))) (let ((.def_46 (and .def_45 .def_34))) (let ((.def_47 (or .def_46 .def_29))) (let ((.def_48 (not .def_47))) (let ((.def_49 (< .def_9 1))) (let ((.def_50 (not .def_49))) (let ((.def_51 (and .def_32 .def_50))) (let ((.def_52 (not .def_51))) (let ((.def_53 (or A9 .def_0))) (let ((.def_54 (and .def_53 .def_52))) (let ((.def_55 (not .def_54))) (let ((.def_56 (not A4))) (let ((.def_57 (and .def_56 .def_19))) (let ((.def_58 (not .def_57))) (let ((.def_59 (and A1 A1))) (let ((.def_60 (not .def_59))) (let ((.def_61 (or .def_60 .def_58))) (let ((.def_62 (not .def_61))) (let ((.def_63 (or .def_62 .def_55))) (let ((.def_64 (* (- 1) x1))) (let ((.def_65 (* 1 x8))) (let ((.def_66 (+ .def_65 .def_64))) (let ((.def_67 (< .def_66 1))) (let ((.def_68 (not .def_67))) (let ((.def_69 (or A4 .def_68))) (let ((.def_70 (+ .def_64 .def_8))) (let ((.def_71 (< .def_70 (- 1)))) (let ((.def_72 (or .def_50 .def_71))) (let ((.def_73 (and .def_72 .def_69))) (let ((.def_74 (not .def_73))) (let ((.def_75 (* 1 x2))) (let ((.def_76 (+ .def_75 .def_35))) (let ((.def_77 (< .def_76 1))) (let ((.def_78 (not .def_77))) (let ((.def_79 (< .def_65 1))) (let ((.def_80 (not .def_79))) (let ((.def_81 (= .def_80 .def_78))) (let ((.def_82 (not .def_81))) (let ((.def_83 (+ .def_13 .def_75))) (let ((.def_84 (< .def_83 1))) (let ((.def_85 (not .def_84))) (let ((.def_86 (or .def_25 .def_85))) (let ((.def_87 (or .def_86 .def_82))) (let ((.def_88 (or .def_87 .def_74))) (let ((.def_89 (not .def_88))) (let ((.def_90 (or .def_89 .def_63))) (let ((.def_91 (not .def_90))) (let ((.def_92 (and .def_91 .def_48))) (let ((.def_93 (not .def_92))) (let ((.def_94 (or A1 .def_56))) (let ((.def_95 (not .def_94))) (let ((.def_96 (* (- 1) x4))) (let ((.def_97 (* 1 x6))) (let ((.def_98 (+ .def_97 .def_96))) (let ((.def_99 (< .def_98 (- 1)))) (let ((.def_100 (not .def_99))) (let ((.def_101 (or .def_100 A8))) (let ((.def_102 (or .def_101 .def_95))) (let ((.def_103 (* (- 1) x3))) (let ((.def_104 (< .def_103 1))) (let ((.def_105 (not .def_104))) (let ((.def_106 (* 1 x0))) (let ((.def_107 (+ .def_1 .def_106))) (let ((.def_108 (< .def_107 (- 1)))) (let ((.def_109 (not .def_108))) (let ((.def_110 (or .def_109 .def_105))) (let ((.def_111 (< .def_13 (- 1)))) (let ((.def_112 (not .def_111))) (let ((.def_113 (= .def_19 .def_112))) (let ((.def_114 (and .def_113 .def_110))) (let ((.def_115 (not .def_114))) (let ((.def_116 (and .def_115 .def_102))) (let ((.def_117 (not .def_116))) (let ((.def_118 (< .def_35 (- 1)))) (let ((.def_119 (+ .def_103 .def_65))) (let ((.def_120 (< .def_119 1))) (let ((.def_121 (not .def_120))) (let ((.def_122 (= .def_121 .def_118))) (let ((.def_123 (< .def_1 1))) (let ((.def_124 (< .def_39 1))) (let ((.def_125 (not .def_124))) (let ((.def_126 (or .def_125 .def_123))) (let ((.def_127 (not .def_126))) (let ((.def_128 (and .def_127 .def_122))) (let ((.def_129 (* 1 x9))) (let ((.def_130 (+ .def_129 .def_22))) (let ((.def_131 (< .def_130 (- 1)))) (let ((.def_132 (not .def_131))) (let ((.def_133 (or A5 .def_132))) (let ((.def_134 (not .def_133))) (let ((.def_135 (and A8 .def_30))) (let ((.def_136 (not .def_135))) (let ((.def_137 (or .def_136 .def_134))) (let ((.def_138 (or .def_137 .def_128))) (let ((.def_139 (and .def_138 .def_117))) (let ((.def_140 (not .def_139))) (let ((.def_141 (not A8))) (let ((.def_142 (= A9 .def_141))) (let ((.def_143 (not .def_142))) (let ((.def_144 (* 1 x1))) (let ((.def_145 (+ .def_144 .def_96))) (let ((.def_146 (< .def_145 1))) (let ((.def_147 (or .def_146 .def_56))) (let ((.def_148 (and .def_147 .def_143))) (let ((.def_149 (< .def_8 (- 1)))) (let ((.def_150 (not .def_149))) (let ((.def_151 (and .def_150 .def_125))) (let ((.def_152 (not .def_151))) (let ((.def_153 (or .def_56 .def_25))) (let ((.def_154 (not .def_153))) (let ((.def_155 (and .def_154 .def_152))) (let ((.def_156 (and .def_155 .def_148))) (let ((.def_157 (< .def_106 1))) (let ((.def_158 (+ .def_103 .def_41))) (let ((.def_159 (< .def_158 1))) (let ((.def_160 (not .def_159))) (let ((.def_161 (and .def_160 .def_157))) (let ((.def_162 (not A9))) (let ((.def_163 (and .def_141 .def_162))) (let ((.def_164 (not .def_163))) (let ((.def_165 (or .def_164 .def_161))) (let ((.def_166 (not A5))) (let ((.def_167 (or .def_40 .def_166))) (let ((.def_168 (< .def_2 1))) (let ((.def_169 (+ .def_144 .def_65))) (let ((.def_170 (< .def_169 (- 1)))) (let ((.def_171 (not .def_170))) (let ((.def_172 (or .def_171 .def_168))) (let ((.def_173 (not .def_172))) (let ((.def_174 (and .def_173 .def_167))) (let ((.def_175 (and .def_174 .def_165))) (let ((.def_176 (not .def_175))) (let ((.def_177 (and .def_176 .def_156))) (let ((.def_178 (not .def_177))) (let ((.def_179 (or .def_178 .def_140))) (let ((.def_180 (and .def_179 .def_93))) (let ((.def_181 (not .def_180))) (let ((.def_182 (< .def_9 (- 1)))) (let ((.def_183 (and A7 .def_182))) (let ((.def_184 (not .def_183))) (let ((.def_185 (* (- 1) x2))) (let ((.def_186 (+ .def_97 .def_185))) (let ((.def_187 (< .def_186 (- 1)))) (let ((.def_188 (* 1 x5))) (let ((.def_189 (< .def_188 1))) (let ((.def_190 (or .def_189 .def_187))) (let ((.def_191 (not .def_190))) (let ((.def_192 (and .def_191 .def_184))) (let ((.def_193 (not .def_192))) (let ((.def_194 (and .def_141 A6))) (let ((.def_195 (or A3 .def_32))) (let ((.def_196 (= .def_195 .def_194))) (let ((.def_197 (not .def_196))) (let ((.def_198 (and .def_197 .def_193))) (let ((.def_199 (+ .def_97 .def_41))) (let ((.def_200 (< .def_199 1))) (let ((.def_201 (not .def_200))) (let ((.def_202 (+ .def_96 .def_144))) (let ((.def_203 (< .def_202 (- 1)))) (let ((.def_204 (and .def_203 .def_201))) (let ((.def_205 (not .def_204))) (let ((.def_206 (not .def_40))) (let ((.def_207 (+ .def_2 .def_65))) (let ((.def_208 (< .def_207 (- 1)))) (let ((.def_209 (and .def_208 .def_206))) (let ((.def_210 (not .def_209))) (let ((.def_211 (or .def_210 .def_205))) (let ((.def_212 (+ .def_41 .def_2))) (let ((.def_213 (< .def_212 (- 1)))) (let ((.def_214 (not .def_213))) (let ((.def_215 (= .def_56 .def_214))) (let ((.def_216 (and .def_112 .def_25))) (let ((.def_217 (not .def_216))) (let ((.def_218 (or .def_217 .def_215))) (let ((.def_219 (or .def_218 .def_211))) (let ((.def_220 (not .def_219))) (let ((.def_221 (or .def_220 .def_198))) (let ((.def_222 (not .def_221))) (let ((.def_223 (< .def_129 (- 1)))) (let ((.def_224 (not .def_223))) (let ((.def_225 (or .def_224 A2))) (let ((.def_226 (+ .def_96 .def_2))) (let ((.def_227 (< .def_226 (- 1)))) (let ((.def_228 (and A0 .def_227))) (let ((.def_229 (not .def_228))) (let ((.def_230 (and .def_229 .def_225))) (let ((.def_231 (or .def_50 .def_30))) (let ((.def_232 (+ .def_39 .def_1))) (let ((.def_233 (< .def_232 (- 1)))) (let ((.def_234 (not .def_233))) (let ((.def_235 (or .def_234 .def_42))) (let ((.def_236 (or .def_235 .def_231))) (let ((.def_237 (or .def_236 .def_230))) (let ((.def_238 (not .def_237))) (let ((.def_239 (and .def_25 .def_123))) (let ((.def_240 (not .def_239))) (let ((.def_241 (or .def_240 .def_94))) (let ((.def_242 (not .def_241))) (let ((.def_243 (+ .def_97 .def_39))) (let ((.def_244 (< .def_243 1))) (let ((.def_245 (and A9 .def_244))) (let ((.def_246 (not .def_245))) (let ((.def_247 (or .def_166 .def_162))) (let ((.def_248 (or .def_247 .def_246))) (let ((.def_249 (not .def_248))) (let ((.def_250 (= .def_249 .def_242))) (let ((.def_251 (or .def_250 .def_238))) (let ((.def_252 (and .def_251 .def_222))) (let ((.def_253 (not A1))) (let ((.def_254 (and A4 .def_253))) (let ((.def_255 (not .def_254))) (let ((.def_256 (and .def_141 A1))) (let ((.def_257 (or .def_256 .def_255))) (let ((.def_258 (+ .def_96 .def_41))) (let ((.def_259 (< .def_258 1))) (let ((.def_260 (or .def_166 .def_259))) (let ((.def_261 (not .def_260))) (let ((.def_262 (+ .def_1 .def_129))) (let ((.def_263 (< .def_262 1))) (let ((.def_264 (or .def_42 .def_263))) (let ((.def_265 (and .def_264 .def_261))) (let ((.def_266 (or .def_265 .def_257))) (let ((.def_267 (not .def_266))) (let ((.def_268 (< .def_22 1))) (let ((.def_269 (not .def_268))) (let ((.def_270 (and .def_141 .def_269))) (let ((.def_271 (+ .def_144 .def_22))) (let ((.def_272 (< .def_271 1))) (let ((.def_273 (and .def_30 .def_272))) (let ((.def_274 (not .def_273))) (let ((.def_275 (or .def_274 .def_270))) (let ((.def_276 (not .def_275))) (let ((.def_277 (+ .def_129 .def_64))) (let ((.def_278 (< .def_277 1))) (let ((.def_279 (not .def_278))) (let ((.def_280 (+ .def_35 .def_41))) (let ((.def_281 (< .def_280 1))) (let ((.def_282 (= .def_281 .def_279))) (let ((.def_283 (not .def_282))) (let ((.def_284 (or .def_0 .def_166))) (let ((.def_285 (not .def_284))) (let ((.def_286 (and .def_285 .def_283))) (let ((.def_287 (= .def_286 .def_276))) (let ((.def_288 (not .def_287))) (let ((.def_289 (or .def_288 .def_267))) (let ((.def_290 (not .def_289))) (let ((.def_291 (< .def_41 (- 1)))) (let ((.def_292 (not .def_291))) (let ((.def_293 (< .def_185 (- 1)))) (let ((.def_294 (not .def_293))) (let ((.def_295 (and .def_294 .def_292))) (let ((.def_296 (not .def_295))) (let ((.def_297 (or A9 .def_19))) (let ((.def_298 (and .def_297 .def_296))) (let ((.def_299 (< .def_96 1))) (let ((.def_300 (< .def_144 (- 1)))) (let ((.def_301 (not .def_300))) (let ((.def_302 (and .def_301 .def_299))) (let ((.def_303 (not .def_302))) (let ((.def_304 (< .def_2 (- 1)))) (let ((.def_305 (or .def_25 .def_304))) (let ((.def_306 (not .def_305))) (let ((.def_307 (or .def_306 .def_303))) (let ((.def_308 (and .def_307 .def_298))) (let ((.def_309 (not .def_308))) (let ((.def_310 (and A5 .def_30))) (let ((.def_311 (= .def_141 .def_162))) (let ((.def_312 (not .def_311))) (let ((.def_313 (and .def_312 .def_310))) (let ((.def_314 (not .def_313))) (let ((.def_315 (+ .def_2 .def_103))) (let ((.def_316 (< .def_315 1))) (let ((.def_317 (and A4 .def_316))) (let ((.def_318 (not .def_317))) (let ((.def_319 (+ .def_97 .def_188))) (let ((.def_320 (< .def_319 1))) (let ((.def_321 (and .def_320 A5))) (let ((.def_322 (and .def_321 .def_318))) (let ((.def_323 (or .def_322 .def_314))) (let ((.def_324 (not .def_323))) (let ((.def_325 (and .def_324 .def_309))) (let ((.def_326 (or .def_325 .def_290))) (let ((.def_327 (not .def_326))) (let ((.def_328 (and .def_327 .def_252))) (let ((.def_329 (or .def_328 .def_181))) (let ((.def_330 (< .def_97 1))) (let ((.def_331 (and .def_330 A4))) (let ((.def_332 (not .def_331))) (let ((.def_333 (and .def_141 .def_19))) (let ((.def_334 (not .def_333))) (let ((.def_335 (or .def_334 .def_332))) (let ((.def_336 (not .def_335))) (let ((.def_337 (< .def_103 (- 1)))) (let ((.def_338 (not .def_32))) (let ((.def_339 (or .def_338 .def_337))) (let ((.def_340 (not .def_14))) (let ((.def_341 (= .def_162 .def_340))) (let ((.def_342 (not .def_341))) (let ((.def_343 (and .def_342 .def_339))) (let ((.def_344 (and .def_343 .def_336))) (let ((.def_345 (not .def_344))) (let ((.def_346 (+ .def_129 .def_75))) (let ((.def_347 (< .def_346 (- 1)))) (let ((.def_348 (not .def_347))) (let ((.def_349 (= .def_348 .def_269))) (let ((.def_350 (not .def_349))) (let ((.def_351 (+ .def_64 .def_97))) (let ((.def_352 (< .def_351 1))) (let ((.def_353 (not .def_352))) (let ((.def_354 (= .def_353 A9))) (let ((.def_355 (or .def_354 .def_350))) (let ((.def_356 (< .def_129 1))) (let ((.def_357 (not .def_356))) (let ((.def_358 (and .def_357 .def_166))) (let ((.def_359 (not .def_358))) (let ((.def_360 (or A6 .def_162))) (let ((.def_361 (not .def_360))) (let ((.def_362 (or .def_361 .def_359))) (let ((.def_363 (or .def_362 .def_355))) (let ((.def_364 (not .def_363))) (let ((.def_365 (and .def_364 .def_345))) (let ((.def_366 (or A4 .def_292))) (let ((.def_367 (< .def_64 1))) (let ((.def_368 (or .def_367 .def_0))) (let ((.def_369 (not .def_368))) (let ((.def_370 (= .def_369 .def_366))) (let ((.def_371 (+ .def_96 .def_103))) (let ((.def_372 (< .def_371 1))) (let ((.def_373 (not .def_372))) (let ((.def_374 (or .def_373 .def_25))) (let ((.def_375 (not .def_374))) (let ((.def_376 (+ .def_188 .def_8))) (let ((.def_377 (< .def_376 1))) (let ((.def_378 (not .def_377))) (let ((.def_379 (+ .def_39 .def_106))) (let ((.def_380 (< .def_379 (- 1)))) (let ((.def_381 (= .def_380 .def_378))) (let ((.def_382 (and .def_381 .def_375))) (let ((.def_383 (and .def_382 .def_370))) (let ((.def_384 (and .def_253 A3))) (let ((.def_385 (not .def_384))) (let ((.def_386 (< .def_96 (- 1)))) (let ((.def_387 (= .def_386 .def_19))) (let ((.def_388 (or .def_387 .def_385))) (let ((.def_389 (not .def_388))) (let ((.def_390 (and A8 .def_166))) (let ((.def_391 (not .def_390))) (let ((.def_392 (or A3 A9))) (let ((.def_393 (= .def_392 .def_391))) (let ((.def_394 (or .def_393 .def_389))) (let ((.def_395 (not .def_394))) (let ((.def_396 (or .def_395 .def_383))) (let ((.def_397 (not .def_396))) (let ((.def_398 (and .def_397 .def_365))) (let ((.def_399 (< .def_64 (- 1)))) (let ((.def_400 (or .def_399 .def_340))) (let ((.def_401 (+ .def_1 .def_39))) (let ((.def_402 (< .def_401 1))) (let ((.def_403 (and .def_402 .def_300))) (let ((.def_404 (not .def_403))) (let ((.def_405 (or .def_404 .def_400))) (let ((.def_406 (or .def_56 A1))) (let ((.def_407 (not .def_406))) (let ((.def_408 (+ .def_1 .def_185))) (let ((.def_409 (< .def_408 (- 1)))) (let ((.def_410 (+ .def_75 .def_9))) (let ((.def_411 (< .def_410 1))) (let ((.def_412 (and .def_411 .def_409))) (let ((.def_413 (not .def_412))) (let ((.def_414 (or .def_413 .def_407))) (let ((.def_415 (and .def_414 .def_405))) (let ((.def_416 (+ .def_22 .def_75))) (let ((.def_417 (< .def_416 (- 1)))) (let ((.def_418 (or .def_417 .def_162))) (let ((.def_419 (not .def_418))) (let ((.def_420 (or .def_25 .def_30))) (let ((.def_421 (and .def_420 .def_419))) (let ((.def_422 (+ .def_22 .def_106))) (let ((.def_423 (< .def_422 (- 1)))) (let ((.def_424 (or .def_253 .def_423))) (let ((.def_425 (or .def_253 A8))) (let ((.def_426 (not .def_425))) (let ((.def_427 (and .def_426 .def_424))) (let ((.def_428 (or .def_427 .def_421))) (let ((.def_429 (or .def_428 .def_415))) (let ((.def_430 (not .def_299))) (let ((.def_431 (or .def_430 .def_25))) (let ((.def_432 (not .def_431))) (let ((.def_433 (or A8 A0))) (let ((.def_434 (not .def_433))) (let ((.def_435 (or .def_434 .def_432))) (let ((.def_436 (and A7 .def_112))) (let ((.def_437 (not .def_436))) (let ((.def_438 (+ .def_13 .def_9))) (let ((.def_439 (< .def_438 1))) (let ((.def_440 (= .def_439 .def_357))) (let ((.def_441 (not .def_440))) (let ((.def_442 (= .def_441 .def_437))) (let ((.def_443 (not .def_442))) (let ((.def_444 (and .def_443 .def_435))) (let ((.def_445 (not .def_444))) (let ((.def_446 (+ .def_185 .def_2))) (let ((.def_447 (< .def_446 1))) (let ((.def_448 (not .def_447))) (let ((.def_449 (< .def_65 (- 1)))) (let ((.def_450 (not .def_449))) (let ((.def_451 (and .def_450 .def_448))) (let ((.def_452 (not .def_451))) (let ((.def_453 (not .def_304))) (let ((.def_454 (and .def_453 .def_125))) (let ((.def_455 (not .def_454))) (let ((.def_456 (= .def_455 .def_452))) (let ((.def_457 (not .def_456))) (let ((.def_458 (+ .def_13 .def_65))) (let ((.def_459 (< .def_458 1))) (let ((.def_460 (not .def_459))) (let ((.def_461 (and .def_460 A8))) (let ((.def_462 (not .def_461))) (let ((.def_463 (= A0 A3))) (let ((.def_464 (or .def_463 .def_462))) (let ((.def_465 (or .def_464 .def_457))) (let ((.def_466 (not .def_465))) (let ((.def_467 (or .def_466 .def_445))) (let ((.def_468 (not .def_467))) (let ((.def_469 (and .def_468 .def_429))) (let ((.def_470 (and .def_469 .def_398))) (let ((.def_471 (not .def_470))) (let ((.def_472 (and .def_19 A8))) (let ((.def_473 (not .def_472))) (let ((.def_474 (+ .def_64 .def_65))) (let ((.def_475 (< .def_474 (- 1)))) (let ((.def_476 (not .def_475))) (let ((.def_477 (or A8 .def_476))) (let ((.def_478 (or .def_477 .def_473))) (let ((.def_479 (+ .def_103 .def_9))) (let ((.def_480 (< .def_479 1))) (let ((.def_481 (and .def_480 .def_19))) (let ((.def_482 (or A2 A0))) (let ((.def_483 (not .def_482))) (let ((.def_484 (and .def_483 .def_481))) (let ((.def_485 (not .def_484))) (let ((.def_486 (and .def_485 .def_478))) (let ((.def_487 (or .def_253 .def_168))) (let ((.def_488 (not .def_487))) (let ((.def_489 (+ .def_64 .def_22))) (let ((.def_490 (< .def_489 1))) (let ((.def_491 (and .def_25 .def_490))) (let ((.def_492 (or .def_491 .def_488))) (let ((.def_493 (+ .def_185 .def_106))) (let ((.def_494 (< .def_493 (- 1)))) (let ((.def_495 (not .def_494))) (let ((.def_496 (and .def_450 .def_495))) (let ((.def_497 (+ .def_35 .def_103))) (let ((.def_498 (< .def_497 1))) (let ((.def_499 (= .def_168 .def_498))) (let ((.def_500 (not .def_499))) (let ((.def_501 (and .def_500 .def_496))) (let ((.def_502 (not .def_501))) (let ((.def_503 (or .def_502 .def_492))) (let ((.def_504 (and .def_503 .def_486))) (let ((.def_505 (not A0))) (let ((.def_506 (and A5 .def_505))) (let ((.def_507 (not .def_506))) (let ((.def_508 (= A7 A4))) (let ((.def_509 (or .def_508 .def_507))) (let ((.def_510 (not .def_509))) (let ((.def_511 (not .def_386))) (let ((.def_512 (< .def_8 1))) (let ((.def_513 (not .def_512))) (let ((.def_514 (= .def_513 .def_511))) (let ((.def_515 (not .def_42))) (let ((.def_516 (and .def_515 .def_356))) (let ((.def_517 (not .def_516))) (let ((.def_518 (or .def_517 .def_514))) (let ((.def_519 (or .def_518 .def_510))) (let ((.def_520 (not .def_519))) (let ((.def_521 (not .def_189))) (let ((.def_522 (and A3 .def_521))) (let ((.def_523 (not .def_522))) (let ((.def_524 (+ .def_144 .def_2))) (let ((.def_525 (< .def_524 (- 1)))) (let ((.def_526 (+ .def_185 .def_8))) (let ((.def_527 (< .def_526 (- 1)))) (let ((.def_528 (not .def_527))) (let ((.def_529 (or .def_528 .def_525))) (let ((.def_530 (or .def_529 .def_523))) (let ((.def_531 (not .def_530))) (let ((.def_532 (< .def_185 1))) (let ((.def_533 (and .def_532 A2))) (let ((.def_534 (+ .def_22 .def_41))) (let ((.def_535 (< .def_534 (- 1)))) (let ((.def_536 (not .def_535))) (let ((.def_537 (and .def_162 .def_536))) (let ((.def_538 (and .def_537 .def_533))) (let ((.def_539 (not .def_538))) (let ((.def_540 (= .def_539 .def_531))) (let ((.def_541 (not .def_540))) (let ((.def_542 (or .def_541 .def_520))) (let ((.def_543 (and .def_542 .def_504))) (let ((.def_544 (+ .def_39 .def_144))) (let ((.def_545 (< .def_544 1))) (let ((.def_546 (and .def_545 .def_84))) (let ((.def_547 (not .def_546))) (let ((.def_548 (not .def_337))) (let ((.def_549 (and .def_157 .def_548))) (let ((.def_550 (and .def_549 .def_547))) (let ((.def_551 (not .def_550))) (let ((.def_552 (or A4 .def_162))) (let ((.def_553 (not .def_552))) (let ((.def_554 (< .def_3 1))) (let ((.def_555 (or .def_554 .def_30))) (let ((.def_556 (not .def_555))) (let ((.def_557 (= .def_556 .def_553))) (let ((.def_558 (not .def_557))) (let ((.def_559 (and .def_558 .def_551))) (let ((.def_560 (or .def_291 .def_118))) (let ((.def_561 (not .def_560))) (let ((.def_562 (+ .def_9 .def_22))) (let ((.def_563 (< .def_562 1))) (let ((.def_564 (not .def_563))) (let ((.def_565 (not .def_480))) (let ((.def_566 (and .def_565 .def_564))) (let ((.def_567 (not .def_566))) (let ((.def_568 (and .def_567 .def_561))) (let ((.def_569 (and .def_141 .def_141))) (let ((.def_570 (+ .def_75 .def_103))) (let ((.def_571 (< .def_570 1))) (let ((.def_572 (and A6 .def_571))) (let ((.def_573 (= .def_572 .def_569))) (let ((.def_574 (and .def_573 .def_568))) (let ((.def_575 (not .def_574))) (let ((.def_576 (and .def_575 .def_559))) (let ((.def_577 (not .def_576))) (let ((.def_578 (not .def_123))) (let ((.def_579 (or .def_578 A2))) (let ((.def_580 (and .def_166 A5))) (let ((.def_581 (not .def_580))) (let ((.def_582 (or .def_581 .def_579))) (let ((.def_583 (not .def_582))) (let ((.def_584 (+ .def_188 .def_9))) (let ((.def_585 (< .def_584 1))) (let ((.def_586 (= .def_585 A8))) (let ((.def_587 (+ .def_96 .def_129))) (let ((.def_588 (< .def_587 1))) (let ((.def_589 (not .def_182))) (let ((.def_590 (or .def_589 .def_588))) (let ((.def_591 (or .def_590 .def_586))) (let ((.def_592 (not .def_591))) (let ((.def_593 (or .def_592 .def_583))) (let ((.def_594 (not .def_593))) (let ((.def_595 (< .def_97 (- 1)))) (let ((.def_596 (not .def_595))) (let ((.def_597 (or .def_595 .def_596))) (let ((.def_598 (and A1 .def_141))) (let ((.def_599 (not .def_598))) (let ((.def_600 (= .def_599 .def_597))) (let ((.def_601 (or .def_19 A4))) (let ((.def_602 (or .def_505 .def_253))) (let ((.def_603 (not .def_602))) (let ((.def_604 (and .def_603 .def_601))) (let ((.def_605 (not .def_604))) (let ((.def_606 (and .def_605 .def_600))) (let ((.def_607 (or .def_606 .def_594))) (let ((.def_608 (not .def_607))) (let ((.def_609 (or .def_608 .def_577))) (let ((.def_610 (not .def_609))) (let ((.def_611 (or .def_610 .def_543))) (let ((.def_612 (and .def_611 .def_471))) (let ((.def_613 (or .def_612 .def_329))) (let ((.def_614 (not .def_613))) (let ((.def_615 (<= x9 1))) (let ((.def_616 (<= 0 x9))) (let ((.def_617 (<= x8 1))) (let ((.def_618 (<= 0 x8))) (let ((.def_619 (<= x7 1))) (let ((.def_620 (<= 0 x7))) (let ((.def_621 (<= x6 1))) (let ((.def_622 (<= 0 x6))) (let ((.def_623 (<= x5 1))) (let ((.def_624 (<= 0 x5))) (let ((.def_625 (<= x4 1))) (let ((.def_626 (<= 0 x4))) (let ((.def_627 (<= x3 1))) (let ((.def_628 (<= 0 x3))) (let ((.def_629 (<= x2 1))) (let ((.def_630 (<= 0 x2))) (let ((.def_631 (<= x1 1))) (let ((.def_632 (<= 0 x1))) (let ((.def_633 (<= x0 1))) (let ((.def_634 (<= 0 x0))) (let ((.def_635 (and .def_634 .def_633 .def_632 .def_631 .def_630 .def_629 .def_628 .def_627 .def_626 .def_625 .def_624 .def_623 .def_622 .def_621 .def_620 .def_619 .def_618 .def_617 .def_616 .def_615 .def_614))) .def_635)))))))))))))))))))))))))))))))))))))))))))))))))))))))))))))))))))))))))))))))))))))))))))))))))))))))))))))))))))))))))))))))))))))))))))))))))))))))))))))))))))))))))))))))))))))))))))))))))))))))))))))))))))))))))))))))))))))))))))))))))))))))))))))))))))))))))))))))))))))))))))))))))))))))))))))))))))))))))))))))))))))))))))))))))))))))))))))))))))))))))))))))))))))))))))))))))))))))))))))))))))))))))))))))))))))))))))))))))))))))))))))))))))))))))))))))))))))))))))))))))))))))))))))))))))))))))))))))))))))))))))))))))))))))))))))))))))))))))))))))))))))))))))))))))))))))))))))))))))))))))))))))))))))))))))))))))))))))))))))
(check-sat)
